NAME : R181_17_80.1991591.tour
COMMENT : Cost = 0_1991591
COMMENT : Found by LKH [Keld Helsgaun] Thu Apr 27 22:36:11 2017
TYPE : TOUR
DIMENSION : 21
TOUR_SECTION
1
17
2
11
5
6
14
16
20
3
9
13
12
8
19
4
15
18
10
7
21
-1
EOF
